p cnf 400 1
400 0
w 1 0.916233
w 2 1 0.984095
w 2 -1 0.713011
w 3 2 1
w 3 -2 0
w 4 3 0.715852
w 4 -3 0.593794
w 5 4 0
w 5 -4 1
w 6 5 1
w 6 -5 0
w 7 6 0
w 7 -6 1
w 8 7 1
w 8 -7 0
w 9 8 0.586943
w 9 -8 0.87373
w 10 9 0.684599
w 10 -9 0.050867
w 11 10 0
w 11 -10 1
w 12 11 0.684875
w 12 -11 0.164084
w 13 12 1
w 13 -12 0
w 14 13 0.150181
w 14 -13 0.412419
w 15 14 0.863191
w 15 -14 0.892659
w 16 15 0.374707
w 16 -15 0.608512
w 17 16 1
w 17 -16 0
w 18 17 1
w 18 -17 0
w 19 18 0
w 19 -18 1
w 20 19 1
w 20 -19 0
w 21 1 1
w 21 -1 0
w 22 21 2 0
w 22 21 -2 1
w 22 -21 2 1
w 22 -21 -2 1
w 23 22 3 1
w 23 22 -3 1
w 23 -22 3 1
w 23 -22 -3 0
w 24 23 4 0
w 24 23 -4 1
w 24 -23 4 1
w 24 -23 -4 1
w 25 24 5 1
w 25 24 -5 0
w 25 -24 5 1
w 25 -24 -5 1
w 26 25 6 0
w 26 25 -6 0
w 26 -25 6 0
w 26 -25 -6 1
w 27 26 7 0.335239
w 27 26 -7 0.553859
w 27 -26 7 0.614369
w 27 -26 -7 0.665092
w 28 27 8 0.890961
w 28 27 -8 0.868674
w 28 -27 8 0.579108
w 28 -27 -8 0.852152
w 29 28 9 1
w 29 28 -9 1
w 29 -28 9 0
w 29 -28 -9 0
w 30 29 10 0.563294
w 30 29 -10 0.822296
w 30 -29 10 0.787423
w 30 -29 -10 0.0505335
w 31 30 11 0.250907
w 31 30 -11 0.400964
w 31 -30 11 0.508255
w 31 -30 -11 0.509607
w 32 31 12 0
w 32 31 -12 1
w 32 -31 12 0
w 32 -31 -12 0
w 33 32 13 0
w 33 32 -13 0
w 33 -32 13 1
w 33 -32 -13 0
w 34 33 14 0.587023
w 34 33 -14 0.0920091
w 34 -33 14 0.410023
w 34 -33 -14 0.166131
w 35 34 15 0.533146
w 35 34 -15 0.782279
w 35 -34 15 0.776093
w 35 -34 -15 0.759381
w 36 35 16 1
w 36 35 -16 0
w 36 -35 16 0
w 36 -35 -16 0
w 37 36 17 0
w 37 36 -17 0
w 37 -36 17 1
w 37 -36 -17 0
w 38 37 18 0.0759173
w 38 37 -18 0.457142
w 38 -37 18 0.562236
w 38 -37 -18 0.616935
w 39 38 19 0.148915
w 39 38 -19 0.493192
w 39 -38 19 0.747854
w 39 -38 -19 0.349963
w 40 39 20 1
w 40 39 -20 1
w 40 -39 20 0
w 40 -39 -20 1
w 41 21 1
w 41 -21 0
w 42 41 22 0
w 42 41 -22 1
w 42 -41 22 0
w 42 -41 -22 1
w 43 42 23 0
w 43 42 -23 0
w 43 -42 23 1
w 43 -42 -23 1
w 44 43 24 1
w 44 43 -24 1
w 44 -43 24 0
w 44 -43 -24 0
w 45 44 25 0
w 45 44 -25 1
w 45 -44 25 0
w 45 -44 -25 0
w 46 45 26 1
w 46 45 -26 0
w 46 -45 26 1
w 46 -45 -26 1
w 47 46 27 0.842846
w 47 46 -27 0.409919
w 47 -46 27 0.996642
w 47 -46 -27 0.820556
w 48 47 28 0.158868
w 48 47 -28 0.557647
w 48 -47 28 0.0968353
w 48 -47 -28 0.0729834
w 49 48 29 0.443105
w 49 48 -29 0.52641
w 49 -48 29 0.0503878
w 49 -48 -29 0.45096
w 50 49 30 0.257535
w 50 49 -30 0.628656
w 50 -49 30 0.313528
w 50 -49 -30 0.364958
w 51 50 31 0.314142
w 51 50 -31 0.0346162
w 51 -50 31 0.752818
w 51 -50 -31 0.140323
w 52 51 32 0.116558
w 52 51 -32 0.714359
w 52 -51 32 0.0217258
w 52 -51 -32 0.51484
w 53 52 33 0.632234
w 53 52 -33 0.357686
w 53 -52 33 0.0331902
w 53 -52 -33 0.628876
w 54 53 34 0
w 54 53 -34 0
w 54 -53 34 0
w 54 -53 -34 1
w 55 54 35 0.353302
w 55 54 -35 0.266336
w 55 -54 35 0.387139
w 55 -54 -35 0.40369
w 56 55 36 0.157195
w 56 55 -36 0.661225
w 56 -55 36 0.345951
w 56 -55 -36 0.470723
w 57 56 37 1
w 57 56 -37 1
w 57 -56 37 1
w 57 -56 -37 0
w 58 57 38 0.0975963
w 58 57 -38 0.639547
w 58 -57 38 0.935715
w 58 -57 -38 0.612437
w 59 58 39 0
w 59 58 -39 1
w 59 -58 39 0
w 59 -58 -39 0
w 60 59 40 1
w 60 59 -40 1
w 60 -59 40 1
w 60 -59 -40 0
w 61 41 0
w 61 -41 1
w 62 61 42 0.829266
w 62 61 -42 0.389632
w 62 -61 42 0.302472
w 62 -61 -42 0.175217
w 63 62 43 0.328656
w 63 62 -43 0.403437
w 63 -62 43 0.64522
w 63 -62 -43 0.389455
w 64 63 44 0
w 64 63 -44 1
w 64 -63 44 1
w 64 -63 -44 1
w 65 64 45 0
w 65 64 -45 0
w 65 -64 45 1
w 65 -64 -45 0
w 66 65 46 1
w 66 65 -46 0
w 66 -65 46 0
w 66 -65 -46 1
w 67 66 47 0.833805
w 67 66 -47 0.334807
w 67 -66 47 0.74879
w 67 -66 -47 0.0662419
w 68 67 48 0.578055
w 68 67 -48 0.455874
w 68 -67 48 0.278526
w 68 -67 -48 0.753272
w 69 68 49 0
w 69 68 -49 1
w 69 -68 49 1
w 69 -68 -49 0
w 70 69 50 0.531857
w 70 69 -50 0.300081
w 70 -69 50 0.0232554
w 70 -69 -50 0.741812
w 71 70 51 0.117763
w 71 70 -51 0.214585
w 71 -70 51 0.34635
w 71 -70 -51 0.182395
w 72 71 52 0.350285
w 72 71 -52 0.395391
w 72 -71 52 0.774551
w 72 -71 -52 0.33879
w 73 72 53 1
w 73 72 -53 0
w 73 -72 53 0
w 73 -72 -53 0
w 74 73 54 0
w 74 73 -54 1
w 74 -73 54 0
w 74 -73 -54 1
w 75 74 55 0
w 75 74 -55 1
w 75 -74 55 0
w 75 -74 -55 1
w 76 75 56 0.189381
w 76 75 -56 0.504246
w 76 -75 56 0.985928
w 76 -75 -56 0.212636
w 77 76 57 0
w 77 76 -57 0
w 77 -76 57 1
w 77 -76 -57 0
w 78 77 58 0.444009
w 78 77 -58 0.221803
w 78 -77 58 0.908185
w 78 -77 -58 0.21856
w 79 78 59 0.400827
w 79 78 -59 0.629931
w 79 -78 59 0.733189
w 79 -78 -59 0.228275
w 80 79 60 0.972025
w 80 79 -60 0.0317772
w 80 -79 60 0.528307
w 80 -79 -60 0.666736
w 81 61 0
w 81 -61 1
w 82 81 62 0.803015
w 82 81 -62 0.667992
w 82 -81 62 0.650066
w 82 -81 -62 0.488861
w 83 82 63 0.154312
w 83 82 -63 0.474789
w 83 -82 63 0.0700093
w 83 -82 -63 0.40037
w 84 83 64 0.400409
w 84 83 -64 0.861012
w 84 -83 64 0.871476
w 84 -83 -64 0.913204
w 85 84 65 1
w 85 84 -65 0
w 85 -84 65 0
w 85 -84 -65 0
w 86 85 66 0
w 86 85 -66 1
w 86 -85 66 0
w 86 -85 -66 1
w 87 86 67 1
w 87 86 -67 1
w 87 -86 67 1
w 87 -86 -67 0
w 88 87 68 0.399088
w 88 87 -68 0.159695
w 88 -87 68 0.353565
w 88 -87 -68 0.887949
w 89 88 69 0
w 89 88 -69 1
w 89 -88 69 0
w 89 -88 -69 0
w 90 89 70 1
w 90 89 -70 0
w 90 -89 70 1
w 90 -89 -70 1
w 91 90 71 1
w 91 90 -71 0
w 91 -90 71 1
w 91 -90 -71 1
w 92 91 72 1
w 92 91 -72 1
w 92 -91 72 1
w 92 -91 -72 0
w 93 92 73 0.377054
w 93 92 -73 0.166881
w 93 -92 73 0.753294
w 93 -92 -73 0.973127
w 94 93 74 0.456794
w 94 93 -74 0.372215
w 94 -93 74 0.81828
w 94 -93 -74 0.810359
w 95 94 75 0
w 95 94 -75 1
w 95 -94 75 0
w 95 -94 -75 0
w 96 95 76 0.409912
w 96 95 -76 0.995741
w 96 -95 76 0.219771
w 96 -95 -76 0.810602
w 97 96 77 1
w 97 96 -77 0
w 97 -96 77 1
w 97 -96 -77 1
w 98 97 78 0
w 98 97 -78 1
w 98 -97 78 0
w 98 -97 -78 0
w 99 98 79 0.281104
w 99 98 -79 0.377695
w 99 -98 79 0.721942
w 99 -98 -79 0.939689
w 100 99 80 0.0941573
w 100 99 -80 0.757969
w 100 -99 80 0.644847
w 100 -99 -80 0.354322
w 101 81 0.963083
w 101 -81 0.977225
w 102 101 82 0.189565
w 102 101 -82 0.962824
w 102 -101 82 0.925653
w 102 -101 -82 0.185306
w 103 102 83 1
w 103 102 -83 1
w 103 -102 83 1
w 103 -102 -83 0
w 104 103 84 0.25836
w 104 103 -84 0.245912
w 104 -103 84 0.342456
w 104 -103 -84 0.15529
w 105 104 85 0.456678
w 105 104 -85 0.779691
w 105 -104 85 0.366488
w 105 -104 -85 0.737783
w 106 105 86 0
w 106 105 -86 1
w 106 -105 86 0
w 106 -105 -86 1
w 107 106 87 1
w 107 106 -87 1
w 107 -106 87 1
w 107 -106 -87 0
w 108 107 88 0.544499
w 108 107 -88 0.78937
w 108 -107 88 0.476958
w 108 -107 -88 0.470152
w 109 108 89 0.659552
w 109 108 -89 0.206407
w 109 -108 89 0.230002
w 109 -108 -89 0.389368
w 110 109 90 0.153208
w 110 109 -90 0.647728
w 110 -109 90 0.221255
w 110 -109 -90 0.495663
w 111 110 91 0.838928
w 111 110 -91 0.952342
w 111 -110 91 0.582709
w 111 -110 -91 0.205416
w 112 111 92 0.740094
w 112 111 -92 0.293846
w 112 -111 92 0.367596
w 112 -111 -92 0.731968
w 113 112 93 1
w 113 112 -93 0
w 113 -112 93 1
w 113 -112 -93 0
w 114 113 94 0.527478
w 114 113 -94 0.376292
w 114 -113 94 0.757864
w 114 -113 -94 0.00443579
w 115 114 95 0.73254
w 115 114 -95 0.663988
w 115 -114 95 0.0528513
w 115 -114 -95 0.962542
w 116 115 96 0
w 116 115 -96 0
w 116 -115 96 1
w 116 -115 -96 0
w 117 116 97 0.504101
w 117 116 -97 0.0883776
w 117 -116 97 0.563754
w 117 -116 -97 0.08681
w 118 117 98 0
w 118 117 -98 1
w 118 -117 98 1
w 118 -117 -98 0
w 119 118 99 0.0640741
w 119 118 -99 0.42451
w 119 -118 99 0.927562
w 119 -118 -99 0.0774176
w 120 119 100 1
w 120 119 -100 0
w 120 -119 100 0
w 120 -119 -100 0
w 121 101 1
w 121 -101 0
w 122 121 102 0
w 122 121 -102 0
w 122 -121 102 1
w 122 -121 -102 1
w 123 122 103 0
w 123 122 -103 1
w 123 -122 103 0
w 123 -122 -103 0
w 124 123 104 0.639919
w 124 123 -104 0.61867
w 124 -123 104 0.191706
w 124 -123 -104 0.893797
w 125 124 105 1
w 125 124 -105 1
w 125 -124 105 0
w 125 -124 -105 0
w 126 125 106 0.932009
w 126 125 -106 0.920837
w 126 -125 106 0.196085
w 126 -125 -106 0.828065
w 127 126 107 0.82868
w 127 126 -107 0.481985
w 127 -126 107 0.135064
w 127 -126 -107 0.307719
w 128 127 108 0.408383
w 128 127 -108 0.839609
w 128 -127 108 0.217448
w 128 -127 -108 0.735058
w 129 128 109 1
w 129 128 -109 0
w 129 -128 109 0
w 129 -128 -109 0
w 130 129 110 1
w 130 129 -110 1
w 130 -129 110 0
w 130 -129 -110 0
w 131 130 111 0
w 131 130 -111 1
w 131 -130 111 1
w 131 -130 -111 0
w 132 131 112 0.747132
w 132 131 -112 0.295375
w 132 -131 112 0.842448
w 132 -131 -112 0.943217
w 133 132 113 0
w 133 132 -113 1
w 133 -132 113 0
w 133 -132 -113 1
w 134 133 114 1
w 134 133 -114 0
w 134 -133 114 0
w 134 -133 -114 1
w 135 134 115 0.318918
w 135 134 -115 0.373518
w 135 -134 115 0.409502
w 135 -134 -115 0.528145
w 136 135 116 0
w 136 135 -116 1
w 136 -135 116 1
w 136 -135 -116 0
w 137 136 117 0.822243
w 137 136 -117 0.976444
w 137 -136 117 0.012322
w 137 -136 -117 0.629594
w 138 137 118 1
w 138 137 -118 0
w 138 -137 118 0
w 138 -137 -118 0
w 139 138 119 0
w 139 138 -119 1
w 139 -138 119 0
w 139 -138 -119 0
w 140 139 120 0
w 140 139 -120 1
w 140 -139 120 1
w 140 -139 -120 1
w 141 121 0
w 141 -121 1
w 142 141 122 0.615625
w 142 141 -122 0.937743
w 142 -141 122 0.0346397
w 142 -141 -122 0.319803
w 143 142 123 0.564803
w 143 142 -123 0.937328
w 143 -142 123 0.507159
w 143 -142 -123 0.387046
w 144 143 124 0.519481
w 144 143 -124 0.0166401
w 144 -143 124 0.253581
w 144 -143 -124 0.453414
w 145 144 125 0
w 145 144 -125 1
w 145 -144 125 1
w 145 -144 -125 1
w 146 145 126 1
w 146 145 -126 1
w 146 -145 126 0
w 146 -145 -126 1
w 147 146 127 0.581603
w 147 146 -127 0.0672844
w 147 -146 127 0.378601
w 147 -146 -127 0.787725
w 148 147 128 0
w 148 147 -128 0
w 148 -147 128 1
w 148 -147 -128 0
w 149 148 129 0.987652
w 149 148 -129 0.880802
w 149 -148 129 0.660482
w 149 -148 -129 0.494811
w 150 149 130 1
w 150 149 -130 0
w 150 -149 130 0
w 150 -149 -130 1
w 151 150 131 0
w 151 150 -131 1
w 151 -150 131 0
w 151 -150 -131 1
w 152 151 132 1
w 152 151 -132 0
w 152 -151 132 0
w 152 -151 -132 1
w 153 152 133 1
w 153 152 -133 0
w 153 -152 133 0
w 153 -152 -133 0
w 154 153 134 1
w 154 153 -134 0
w 154 -153 134 0
w 154 -153 -134 1
w 155 154 135 1
w 155 154 -135 0
w 155 -154 135 1
w 155 -154 -135 0
w 156 155 136 0.3494
w 156 155 -136 0.824593
w 156 -155 136 0.628463
w 156 -155 -136 0.633889
w 157 156 137 0.0961684
w 157 156 -137 0.311743
w 157 -156 137 0.369028
w 157 -156 -137 0.793669
w 158 157 138 0.733019
w 158 157 -138 0.865528
w 158 -157 138 0.89922
w 158 -157 -138 0.10845
w 159 158 139 0.0721377
w 159 158 -139 0.333243
w 159 -158 139 0.63518
w 159 -158 -139 0.31234
w 160 159 140 0.0985325
w 160 159 -140 0.0294241
w 160 -159 140 0.821388
w 160 -159 -140 0.965236
w 161 141 0
w 161 -141 1
w 162 161 142 0.280493
w 162 161 -142 0.10369
w 162 -161 142 0.805433
w 162 -161 -142 0.894664
w 163 162 143 1
w 163 162 -143 0
w 163 -162 143 0
w 163 -162 -143 0
w 164 163 144 0.398722
w 164 163 -144 0.65148
w 164 -163 144 0.412965
w 164 -163 -144 0.101629
w 165 164 145 0
w 165 164 -145 0
w 165 -164 145 1
w 165 -164 -145 1
w 166 165 146 1
w 166 165 -146 0
w 166 -165 146 1
w 166 -165 -146 1
w 167 166 147 0.41475
w 167 166 -147 0.584217
w 167 -166 147 0.936993
w 167 -166 -147 0.575883
w 168 167 148 0.492087
w 168 167 -148 0.856376
w 168 -167 148 0.710046
w 168 -167 -148 0.29752
w 169 168 149 0.163136
w 169 168 -149 0.927545
w 169 -168 149 0.274168
w 169 -168 -149 0.250115
w 170 169 150 1
w 170 169 -150 1
w 170 -169 150 0
w 170 -169 -150 1
w 171 170 151 0.245978
w 171 170 -151 0.584921
w 171 -170 151 0.751315
w 171 -170 -151 0.738927
w 172 171 152 0.824301
w 172 171 -152 0.565119
w 172 -171 152 0.69619
w 172 -171 -152 0.209627
w 173 172 153 1
w 173 172 -153 1
w 173 -172 153 0
w 173 -172 -153 0
w 174 173 154 1
w 174 173 -154 0
w 174 -173 154 1
w 174 -173 -154 0
w 175 174 155 1
w 175 174 -155 0
w 175 -174 155 1
w 175 -174 -155 1
w 176 175 156 0.532089
w 176 175 -156 0.975307
w 176 -175 156 0.290654
w 176 -175 -156 0.393568
w 177 176 157 1
w 177 176 -157 1
w 177 -176 157 0
w 177 -176 -157 0
w 178 177 158 0
w 178 177 -158 1
w 178 -177 158 1
w 178 -177 -158 1
w 179 178 159 0.27154
w 179 178 -159 0.0537573
w 179 -178 159 0.450741
w 179 -178 -159 0.183705
w 180 179 160 0.651001
w 180 179 -160 0.702225
w 180 -179 160 0.755722
w 180 -179 -160 0.707637
w 181 161 0.150268
w 181 -161 0.515312
w 182 181 162 0
w 182 181 -162 0
w 182 -181 162 1
w 182 -181 -162 1
w 183 182 163 0.254964
w 183 182 -163 0.398016
w 183 -182 163 0.854198
w 183 -182 -163 0.296084
w 184 183 164 0
w 184 183 -164 0
w 184 -183 164 1
w 184 -183 -164 1
w 185 184 165 0.359626
w 185 184 -165 0.796285
w 185 -184 165 0.531618
w 185 -184 -165 0.631166
w 186 185 166 0.982359
w 186 185 -166 0.814871
w 186 -185 166 0.508739
w 186 -185 -166 0.633359
w 187 186 167 0.264461
w 187 186 -167 0.340996
w 187 -186 167 0.447887
w 187 -186 -167 0.414729
w 188 187 168 0.770379
w 188 187 -168 0.887087
w 188 -187 168 0.453464
w 188 -187 -168 0.734689
w 189 188 169 0.0259266
w 189 188 -169 0.989653
w 189 -188 169 0.289551
w 189 -188 -169 0.880124
w 190 189 170 0
w 190 189 -170 1
w 190 -189 170 0
w 190 -189 -170 1
w 191 190 171 1
w 191 190 -171 0
w 191 -190 171 0
w 191 -190 -171 1
w 192 191 172 0.65778
w 192 191 -172 0.593488
w 192 -191 172 0.548808
w 192 -191 -172 0.16652
w 193 192 173 0
w 193 192 -173 1
w 193 -192 173 1
w 193 -192 -173 1
w 194 193 174 0.424152
w 194 193 -174 0.284171
w 194 -193 174 0.732797
w 194 -193 -174 0.877616
w 195 194 175 1
w 195 194 -175 1
w 195 -194 175 1
w 195 -194 -175 0
w 196 195 176 0.294249
w 196 195 -176 0.240994
w 196 -195 176 0.384644
w 196 -195 -176 0.668505
w 197 196 177 0.396096
w 197 196 -177 0.748016
w 197 -196 177 0.0869109
w 197 -196 -177 0.203834
w 198 197 178 1
w 198 197 -178 1
w 198 -197 178 1
w 198 -197 -178 0
w 199 198 179 1
w 199 198 -179 0
w 199 -198 179 1
w 199 -198 -179 0
w 200 199 180 0.304825
w 200 199 -180 0.171476
w 200 -199 180 0.233523
w 200 -199 -180 0.0376217
w 201 181 0
w 201 -181 1
w 202 201 182 0.952635
w 202 201 -182 0.260895
w 202 -201 182 0.575837
w 202 -201 -182 0.736301
w 203 202 183 0.816831
w 203 202 -183 0.120946
w 203 -202 183 0.223649
w 203 -202 -183 0.800971
w 204 203 184 0.971665
w 204 203 -184 0.887882
w 204 -203 184 0.720876
w 204 -203 -184 0.33081
w 205 204 185 0.582491
w 205 204 -185 0.283443
w 205 -204 185 0.0783862
w 205 -204 -185 0.610625
w 206 205 186 1
w 206 205 -186 1
w 206 -205 186 0
w 206 -205 -186 1
w 207 206 187 0
w 207 206 -187 1
w 207 -206 187 0
w 207 -206 -187 1
w 208 207 188 0.0741398
w 208 207 -188 0.383451
w 208 -207 188 0.2101
w 208 -207 -188 0.649977
w 209 208 189 0
w 209 208 -189 0
w 209 -208 189 0
w 209 -208 -189 1
w 210 209 190 0.960558
w 210 209 -190 0.155661
w 210 -209 190 0.478617
w 210 -209 -190 0.291369
w 211 210 191 0.0611073
w 211 210 -191 0.574812
w 211 -210 191 0.942777
w 211 -210 -191 0.671732
w 212 211 192 0
w 212 211 -192 1
w 212 -211 192 1
w 212 -211 -192 0
w 213 212 193 1
w 213 212 -193 1
w 213 -212 193 0
w 213 -212 -193 1
w 214 213 194 0.602362
w 214 213 -194 0.443976
w 214 -213 194 0.776151
w 214 -213 -194 0.252338
w 215 214 195 0.541395
w 215 214 -195 0.719146
w 215 -214 195 0.804427
w 215 -214 -195 0.530288
w 216 215 196 0.562167
w 216 215 -196 0.490847
w 216 -215 196 0.142585
w 216 -215 -196 0.0407834
w 217 216 197 0.00697582
w 217 216 -197 0.101891
w 217 -216 197 0.357027
w 217 -216 -197 0.949752
w 218 217 198 0.394764
w 218 217 -198 0.406476
w 218 -217 198 0.515095
w 218 -217 -198 0.642748
w 219 218 199 0
w 219 218 -199 0
w 219 -218 199 1
w 219 -218 -199 1
w 220 219 200 1
w 220 219 -200 1
w 220 -219 200 0
w 220 -219 -200 0
w 221 201 0
w 221 -201 1
w 222 221 202 0.733199
w 222 221 -202 0.145114
w 222 -221 202 0.357228
w 222 -221 -202 0.720124
w 223 222 203 0.848075
w 223 222 -203 0.86271
w 223 -222 203 0.748065
w 223 -222 -203 0.63029
w 224 223 204 0.849955
w 224 223 -204 0.987317
w 224 -223 204 0.819438
w 224 -223 -204 0.623578
w 225 224 205 0
w 225 224 -205 1
w 225 -224 205 1
w 225 -224 -205 1
w 226 225 206 0.297287
w 226 225 -206 0.495757
w 226 -225 206 0.929157
w 226 -225 -206 0.630269
w 227 226 207 1
w 227 226 -207 1
w 227 -226 207 0
w 227 -226 -207 1
w 228 227 208 0.117636
w 228 227 -208 0.438124
w 228 -227 208 0.89303
w 228 -227 -208 0.474864
w 229 228 209 0
w 229 228 -209 1
w 229 -228 209 0
w 229 -228 -209 0
w 230 229 210 0.890643
w 230 229 -210 0.198331
w 230 -229 210 0.940546
w 230 -229 -210 0.710081
w 231 230 211 0.322628
w 231 230 -211 0.935994
w 231 -230 211 0.960583
w 231 -230 -211 0.347457
w 232 231 212 0
w 232 231 -212 0
w 232 -231 212 0
w 232 -231 -212 1
w 233 232 213 0.350414
w 233 232 -213 0.682241
w 233 -232 213 0.280011
w 233 -232 -213 0.0553383
w 234 233 214 0
w 234 233 -214 0
w 234 -233 214 1
w 234 -233 -214 0
w 235 234 215 0.923498
w 235 234 -215 0.19545
w 235 -234 215 0.672667
w 235 -234 -215 0.271874
w 236 235 216 1
w 236 235 -216 1
w 236 -235 216 0
w 236 -235 -216 1
w 237 236 217 1
w 237 236 -217 1
w 237 -236 217 0
w 237 -236 -217 1
w 238 237 218 0.404054
w 238 237 -218 0.681957
w 238 -237 218 0.642627
w 238 -237 -218 0.679067
w 239 238 219 0.993041
w 239 238 -219 0.361308
w 239 -238 219 0.951283
w 239 -238 -219 0.048379
w 240 239 220 0.34893
w 240 239 -220 0.541841
w 240 -239 220 0.114652
w 240 -239 -220 0.221441
w 241 221 1
w 241 -221 0
w 242 241 222 0
w 242 241 -222 1
w 242 -241 222 1
w 242 -241 -222 1
w 243 242 223 0.654795
w 243 242 -223 0.702919
w 243 -242 223 0.0723453
w 243 -242 -223 0.0666482
w 244 243 224 0.325043
w 244 243 -224 0.825958
w 244 -243 224 0.610097
w 244 -243 -224 0.308127
w 245 244 225 0
w 245 244 -225 0
w 245 -244 225 0
w 245 -244 -225 1
w 246 245 226 0.270387
w 246 245 -226 0.914608
w 246 -245 226 0.992174
w 246 -245 -226 0.0618513
w 247 246 227 1
w 247 246 -227 0
w 247 -246 227 1
w 247 -246 -227 0
w 248 247 228 1
w 248 247 -228 1
w 248 -247 228 0
w 248 -247 -228 1
w 249 248 229 1
w 249 248 -229 0
w 249 -248 229 1
w 249 -248 -229 1
w 250 249 230 0.014841
w 250 249 -230 0.248634
w 250 -249 230 0.0104229
w 250 -249 -230 0.244853
w 251 250 231 0.961177
w 251 250 -231 0.153932
w 251 -250 231 0.504013
w 251 -250 -231 0.904971
w 252 251 232 1
w 252 251 -232 1
w 252 -251 232 0
w 252 -251 -232 0
w 253 252 233 1
w 253 252 -233 1
w 253 -252 233 0
w 253 -252 -233 1
w 254 253 234 1
w 254 253 -234 0
w 254 -253 234 0
w 254 -253 -234 0
w 255 254 235 0.658681
w 255 254 -235 0.502054
w 255 -254 235 0.084163
w 255 -254 -235 0.847564
w 256 255 236 0
w 256 255 -236 1
w 256 -255 236 0
w 256 -255 -236 0
w 257 256 237 0
w 257 256 -237 1
w 257 -256 237 0
w 257 -256 -237 1
w 258 257 238 0.685508
w 258 257 -238 0.852546
w 258 -257 238 0.560175
w 258 -257 -238 0.171678
w 259 258 239 0.991334
w 259 258 -239 0.834351
w 259 -258 239 0.701843
w 259 -258 -239 0.150059
w 260 259 240 0.770851
w 260 259 -240 0.902569
w 260 -259 240 0.11368
w 260 -259 -240 0.307298
w 261 241 0.82059
w 261 -241 0.965979
w 262 261 242 0
w 262 261 -242 1
w 262 -261 242 1
w 262 -261 -242 1
w 263 262 243 0.710261
w 263 262 -243 0.488093
w 263 -262 243 0.783207
w 263 -262 -243 0.640173
w 264 263 244 1
w 264 263 -244 0
w 264 -263 244 0
w 264 -263 -244 1
w 265 264 245 0.469356
w 265 264 -245 0.901584
w 265 -264 245 0.461351
w 265 -264 -245 0.46069
w 266 265 246 0.163194
w 266 265 -246 0.610749
w 266 -265 246 0.447611
w 266 -265 -246 0.934045
w 267 266 247 0.56129
w 267 266 -247 0.241343
w 267 -266 247 0.191709
w 267 -266 -247 0.38188
w 268 267 248 0
w 268 267 -248 0
w 268 -267 248 0
w 268 -267 -248 1
w 269 268 249 0.403451
w 269 268 -249 0.465938
w 269 -268 249 0.480022
w 269 -268 -249 0.0436242
w 270 269 250 0.524419
w 270 269 -250 0.117723
w 270 -269 250 0.621271
w 270 -269 -250 0.254325
w 271 270 251 1
w 271 270 -251 1
w 271 -270 251 1
w 271 -270 -251 0
w 272 271 252 0.668913
w 272 271 -252 0.162066
w 272 -271 252 0.339453
w 272 -271 -252 0.602958
w 273 272 253 0.900743
w 273 272 -253 0.844301
w 273 -272 253 0.867093
w 273 -272 -253 0.282624
w 274 273 254 0
w 274 273 -254 1
w 274 -273 254 1
w 274 -273 -254 0
w 275 274 255 0.769305
w 275 274 -255 0.335888
w 275 -274 255 0.0130392
w 275 -274 -255 0.249327
w 276 275 256 0
w 276 275 -256 1
w 276 -275 256 0
w 276 -275 -256 1
w 277 276 257 0
w 277 276 -257 0
w 277 -276 257 1
w 277 -276 -257 1
w 278 277 258 0.0758214
w 278 277 -258 0.716235
w 278 -277 258 0.150409
w 278 -277 -258 0.415275
w 279 278 259 0
w 279 278 -259 1
w 279 -278 259 0
w 279 -278 -259 0
w 280 279 260 1
w 280 279 -260 1
w 280 -279 260 0
w 280 -279 -260 1
w 281 261 0.0569114
w 281 -261 0.200459
w 282 281 262 0.306238
w 282 281 -262 0.579972
w 282 -281 262 0.453167
w 282 -281 -262 0.0799841
w 283 282 263 1
w 283 282 -263 1
w 283 -282 263 1
w 283 -282 -263 0
w 284 283 264 1
w 284 283 -264 1
w 284 -283 264 1
w 284 -283 -264 0
w 285 284 265 1
w 285 284 -265 0
w 285 -284 265 1
w 285 -284 -265 1
w 286 285 266 0.894023
w 286 285 -266 0.69779
w 286 -285 266 0.0801715
w 286 -285 -266 0.826156
w 287 286 267 0.367778
w 287 286 -267 0.690727
w 287 -286 267 0.580687
w 287 -286 -267 0.42469
w 288 287 268 0.308726
w 288 287 -268 0.730928
w 288 -287 268 0.471158
w 288 -287 -268 0.761893
w 289 288 269 0.548365
w 289 288 -269 0.56146
w 289 -288 269 0.918967
w 289 -288 -269 0.167176
w 290 289 270 0.211
w 290 289 -270 0.833309
w 290 -289 270 0.022989
w 290 -289 -270 0.578856
w 291 290 271 1
w 291 290 -271 0
w 291 -290 271 0
w 291 -290 -271 0
w 292 291 272 0
w 292 291 -272 1
w 292 -291 272 1
w 292 -291 -272 0
w 293 292 273 1
w 293 292 -273 1
w 293 -292 273 0
w 293 -292 -273 0
w 294 293 274 0.901563
w 294 293 -274 0.914024
w 294 -293 274 0.385859
w 294 -293 -274 0.37272
w 295 294 275 0.196771
w 295 294 -275 0.921085
w 295 -294 275 0.237377
w 295 -294 -275 0.115737
w 296 295 276 0
w 296 295 -276 0
w 296 -295 276 0
w 296 -295 -276 1
w 297 296 277 0.137246
w 297 296 -277 0.456753
w 297 -296 277 0.267579
w 297 -296 -277 0.0544836
w 298 297 278 0
w 298 297 -278 1
w 298 -297 278 1
w 298 -297 -278 1
w 299 298 279 0.869367
w 299 298 -279 0.912246
w 299 -298 279 0.92948
w 299 -298 -279 0.879744
w 300 299 280 0.584411
w 300 299 -280 0.781307
w 300 -299 280 0.431568
w 300 -299 -280 0.97027
w 301 281 1
w 301 -281 0
w 302 301 282 1
w 302 301 -282 0
w 302 -301 282 0
w 302 -301 -282 0
w 303 302 283 0
w 303 302 -283 0
w 303 -302 283 0
w 303 -302 -283 1
w 304 303 284 0
w 304 303 -284 0
w 304 -303 284 1
w 304 -303 -284 0
w 305 304 285 0.113448
w 305 304 -285 0.501406
w 305 -304 285 0.399036
w 305 -304 -285 0.812687
w 306 305 286 0
w 306 305 -286 1
w 306 -305 286 0
w 306 -305 -286 0
w 307 306 287 0
w 307 306 -287 0
w 307 -306 287 1
w 307 -306 -287 0
w 308 307 288 0
w 308 307 -288 0
w 308 -307 288 1
w 308 -307 -288 1
w 309 308 289 1
w 309 308 -289 1
w 309 -308 289 1
w 309 -308 -289 0
w 310 309 290 1
w 310 309 -290 0
w 310 -309 290 1
w 310 -309 -290 1
w 311 310 291 1
w 311 310 -291 1
w 311 -310 291 0
w 311 -310 -291 0
w 312 311 292 0.676446
w 312 311 -292 0.501599
w 312 -311 292 0.704524
w 312 -311 -292 0.00302331
w 313 312 293 0.964919
w 313 312 -293 0.299871
w 313 -312 293 0.719275
w 313 -312 -293 0.332798
w 314 313 294 0.98024
w 314 313 -294 0.0455403
w 314 -313 294 0.510425
w 314 -313 -294 0.404577
w 315 314 295 1
w 315 314 -295 1
w 315 -314 295 1
w 315 -314 -295 0
w 316 315 296 0.0975348
w 316 315 -296 0.391878
w 316 -315 296 0.653472
w 316 -315 -296 0.476436
w 317 316 297 0.775064
w 317 316 -297 0.356744
w 317 -316 297 0.121674
w 317 -316 -297 0.709343
w 318 317 298 0.997372
w 318 317 -298 0.385788
w 318 -317 298 0.109423
w 318 -317 -298 0.701896
w 319 318 299 0
w 319 318 -299 1
w 319 -318 299 1
w 319 -318 -299 0
w 320 319 300 0.452442
w 320 319 -300 0.342362
w 320 -319 300 0.0451534
w 320 -319 -300 0.962867
w 321 301 0.183729
w 321 -301 0.829474
w 322 321 302 0.854051
w 322 321 -302 0.567373
w 322 -321 302 0.306126
w 322 -321 -302 0.951586
w 323 322 303 0.959598
w 323 322 -303 0.428022
w 323 -322 303 0.516509
w 323 -322 -303 0.734661
w 324 323 304 0.638183
w 324 323 -304 0.444004
w 324 -323 304 0.39259
w 324 -323 -304 0.635554
w 325 324 305 0.502013
w 325 324 -305 0.337451
w 325 -324 305 0.218603
w 325 -324 -305 0.14486
w 326 325 306 0
w 326 325 -306 1
w 326 -325 306 1
w 326 -325 -306 1
w 327 326 307 0.0490318
w 327 326 -307 0.322594
w 327 -326 307 0.596283
w 327 -326 -307 0.23276
w 328 327 308 0
w 328 327 -308 1
w 328 -327 308 0
w 328 -327 -308 0
w 329 328 309 1
w 329 328 -309 1
w 329 -328 309 0
w 329 -328 -309 0
w 330 329 310 0
w 330 329 -310 1
w 330 -329 310 1
w 330 -329 -310 1
w 331 330 311 0
w 331 330 -311 1
w 331 -330 311 1
w 331 -330 -311 1
w 332 331 312 0.657149
w 332 331 -312 0.797628
w 332 -331 312 0.814533
w 332 -331 -312 0.0168766
w 333 332 313 0.863565
w 333 332 -313 0.339471
w 333 -332 313 0.243255
w 333 -332 -313 0.0963252
w 334 333 314 0
w 334 333 -314 1
w 334 -333 314 0
w 334 -333 -314 0
w 335 334 315 0.586343
w 335 334 -315 0.687952
w 335 -334 315 0.0848754
w 335 -334 -315 0.843808
w 336 335 316 0.91826
w 336 335 -316 0.545277
w 336 -335 316 0.582909
w 336 -335 -316 0.387198
w 337 336 317 0
w 337 336 -317 1
w 337 -336 317 1
w 337 -336 -317 0
w 338 337 318 1
w 338 337 -318 0
w 338 -337 318 1
w 338 -337 -318 0
w 339 338 319 1
w 339 338 -319 0
w 339 -338 319 1
w 339 -338 -319 0
w 340 339 320 1
w 340 339 -320 0
w 340 -339 320 1
w 340 -339 -320 1
w 341 321 1
w 341 -321 0
w 342 341 322 0.871286
w 342 341 -322 0.516968
w 342 -341 322 0.701223
w 342 -341 -322 0.810422
w 343 342 323 1
w 343 342 -323 1
w 343 -342 323 1
w 343 -342 -323 0
w 344 343 324 0
w 344 343 -324 1
w 344 -343 324 0
w 344 -343 -324 0
w 345 344 325 0.958337
w 345 344 -325 0.83903
w 345 -344 325 0.133415
w 345 -344 -325 0.422279
w 346 345 326 0.973313
w 346 345 -326 0.129476
w 346 -345 326 0.300036
w 346 -345 -326 0.30475
w 347 346 327 1
w 347 346 -327 1
w 347 -346 327 0
w 347 -346 -327 1
w 348 347 328 0
w 348 347 -328 1
w 348 -347 328 0
w 348 -347 -328 0
w 349 348 329 0
w 349 348 -329 0
w 349 -348 329 1
w 349 -348 -329 0
w 350 349 330 0.069895
w 350 349 -330 0.885692
w 350 -349 330 0.783603
w 350 -349 -330 0.0901503
w 351 350 331 0.74194
w 351 350 -331 0.929181
w 351 -350 331 0.652094
w 351 -350 -331 0.164219
w 352 351 332 1
w 352 351 -332 0
w 352 -351 332 0
w 352 -351 -332 1
w 353 352 333 0.0124241
w 353 352 -333 0.777326
w 353 -352 333 0.238781
w 353 -352 -333 0.457596
w 354 353 334 0
w 354 353 -334 1
w 354 -353 334 0
w 354 -353 -334 1
w 355 354 335 0.0842714
w 355 354 -335 0.284209
w 355 -354 335 0.421145
w 355 -354 -335 0.138153
w 356 355 336 1
w 356 355 -336 0
w 356 -355 336 0
w 356 -355 -336 0
w 357 356 337 0
w 357 356 -337 0
w 357 -356 337 1
w 357 -356 -337 1
w 358 357 338 0.67793
w 358 357 -338 0.702335
w 358 -357 338 0.046837
w 358 -357 -338 0.428517
w 359 358 339 0.677539
w 359 358 -339 0.440941
w 359 -358 339 0.409819
w 359 -358 -339 0.916319
w 360 359 340 0.466405
w 360 359 -340 0.620594
w 360 -359 340 0.672592
w 360 -359 -340 0.319221
w 361 341 0
w 361 -341 1
w 362 361 342 0
w 362 361 -342 1
w 362 -361 342 1
w 362 -361 -342 1
w 363 362 343 1
w 363 362 -343 0
w 363 -362 343 1
w 363 -362 -343 1
w 364 363 344 1
w 364 363 -344 0
w 364 -363 344 1
w 364 -363 -344 1
w 365 364 345 0.906509
w 365 364 -345 0.293938
w 365 -364 345 0.381719
w 365 -364 -345 0.539002
w 366 365 346 0.82266
w 366 365 -346 0.94882
w 366 -365 346 0.887796
w 366 -365 -346 0.721198
w 367 366 347 1
w 367 366 -347 1
w 367 -366 347 1
w 367 -366 -347 0
w 368 367 348 1
w 368 367 -348 0
w 368 -367 348 1
w 368 -367 -348 1
w 369 368 349 0
w 369 368 -349 1
w 369 -368 349 0
w 369 -368 -349 1
w 370 369 350 1
w 370 369 -350 0
w 370 -369 350 1
w 370 -369 -350 1
w 371 370 351 0.960071
w 371 370 -351 0.0873618
w 371 -370 351 0.0513692
w 371 -370 -351 0.931548
w 372 371 352 0.000189661
w 372 371 -352 0.819344
w 372 -371 352 0.63122
w 372 -371 -352 0.415416
w 373 372 353 0
w 373 372 -353 0
w 373 -372 353 1
w 373 -372 -353 1
w 374 373 354 0
w 374 373 -354 0
w 374 -373 354 1
w 374 -373 -354 1
w 375 374 355 0.396663
w 375 374 -355 0.949947
w 375 -374 355 0.899422
w 375 -374 -355 0.873833
w 376 375 356 0
w 376 375 -356 0
w 376 -375 356 1
w 376 -375 -356 1
w 377 376 357 1
w 377 376 -357 0
w 377 -376 357 0
w 377 -376 -357 0
w 378 377 358 0.329301
w 378 377 -358 0.521416
w 378 -377 358 0.695548
w 378 -377 -358 0.960521
w 379 378 359 0.0232814
w 379 378 -359 0.985531
w 379 -378 359 0.0866935
w 379 -378 -359 0.350991
w 380 379 360 0.374495
w 380 379 -360 0.45447
w 380 -379 360 0.932167
w 380 -379 -360 0.34188
w 381 361 1
w 381 -361 0
w 382 381 362 0.0799242
w 382 381 -362 0.805938
w 382 -381 362 0.612376
w 382 -381 -362 0.431555
w 383 382 363 1
w 383 382 -363 0
w 383 -382 363 0
w 383 -382 -363 1
w 384 383 364 0.0536324
w 384 383 -364 0.989845
w 384 -383 364 0.380128
w 384 -383 -364 0.929836
w 385 384 365 0
w 385 384 -365 0
w 385 -384 365 1
w 385 -384 -365 1
w 386 385 366 0.265197
w 386 385 -366 0.925069
w 386 -385 366 0.999656
w 386 -385 -366 0.243053
w 387 386 367 0
w 387 386 -367 1
w 387 -386 367 0
w 387 -386 -367 1
w 388 387 368 0
w 388 387 -368 1
w 388 -387 368 1
w 388 -387 -368 1
w 389 388 369 0
w 389 388 -369 1
w 389 -388 369 1
w 389 -388 -369 0
w 390 389 370 0.343531
w 390 389 -370 0.174672
w 390 -389 370 0.791424
w 390 -389 -370 0.723659
w 391 390 371 0
w 391 390 -371 1
w 391 -390 371 1
w 391 -390 -371 1
w 392 391 372 1
w 392 391 -372 1
w 392 -391 372 1
w 392 -391 -372 0
w 393 392 373 0.688211
w 393 392 -373 0.832341
w 393 -392 373 0.0737049
w 393 -392 -373 0.329654
w 394 393 374 1
w 394 393 -374 0
w 394 -393 374 1
w 394 -393 -374 0
w 395 394 375 0.176057
w 395 394 -375 0.0551778
w 395 -394 375 0.933016
w 395 -394 -375 0.660686
w 396 395 376 1
w 396 395 -376 1
w 396 -395 376 0
w 396 -395 -376 1
w 397 396 377 0.455399
w 397 396 -377 0.636587
w 397 -396 377 0.353079
w 397 -396 -377 0.185292
w 398 397 378 1
w 398 397 -378 1
w 398 -397 378 0
w 398 -397 -378 0
w 399 398 379 0.580741
w 399 398 -379 0.893516
w 399 -398 379 0.774406
w 399 -398 -379 0.654446
w 400 399 380 1
w 400 399 -380 1
w 400 -399 380 0
w 400 -399 -380 0